100
13 4
22 0
27 0
10 4
5 1
2 4
31 3
21 4
20 2
41 1
43 3
9 3
21 2
38 3
32 4
4 0
4 4
12 4
43 4
19 3
20 0
41 0
5 3
33 4
16 2
37 3
25 2
11 3
3 0
14 0
34 0
30 0
28 4
9 2
3 2
38 4
36 4
0 3
0 1
27 4
32 0
32 1
27 1
18 4
19 0
40 1
30 4
37 4
6 4
1 1
20 1
29 0
0 0
9 4
25 4
28 3
1 4
33 0
42 2
12 2
18 3
1 3
24 4
34 3
23 1
28 0
20 4
23 3
1 0
22 2
16 3
7 4
40 0
24 0
21 1
6 0
41 4
31 0
4 1
43 0
38 1
3 1
36 0
9 0
28 2
15 1
42 1
14 4
1 2
2 3
31 4
5 0
22 4
7 0
3 3
7 3
37 2
13 0
4 3
23 0

